(set-option :produce-models true)
(set-logic QF_UF)
(declare-fun p19() Bool)
(declare-fun p16() Bool)
(declare-fun p3() Bool)
(declare-fun p1() Bool)
(declare-fun p15() Bool)
(declare-fun p10() Bool)
(declare-fun p20() Bool)
(declare-fun p13() Bool)
(declare-fun p6() Bool)
(declare-fun p24() Bool)
(declare-fun p21() Bool)
(declare-fun p5() Bool)
(declare-fun p7() Bool)
(declare-fun p23() Bool)
(declare-fun p14() Bool)
(declare-fun p18() Bool)
(declare-fun p12() Bool)
(declare-fun p8() Bool)
(declare-fun p2() Bool)
(declare-fun p4() Bool)
(declare-fun p0() Bool)
(declare-fun p9() Bool)
(declare-fun p17() Bool)
(declare-fun p11() Bool)
(declare-fun p22() Bool)
(assert
(and (or p19 p16 p3) (or p1 (not p15) p10) (or (not p20) p13 p13) (or p6 (not p24) p21) (or p5 p7 p23) (or p7 (not p10) p14) (or (not p13) p20 p10) (or p6 p18 (not p23)) (or p12 p8 p2) (or p3 (not p4) p21) (or (not p15) p0 p2) (or p7 (not p9) (not p20)) (or p12 p21 p12) (or (not p17) (not p9) p12) (or p18 (not p18) p9) (or (not p23) (not p15) p11) (or p12 p19 p11) (or (not p20) (not p17) (not p14)) (or (not p10) (not p5) p5) (or (not p23) p23 p19) (or p24 (not p6) (not p13)) (or (not p6) (not p12) (not p8)) (or (not p9) p5 (not p15)) (or (not p19) (not p9) p5) (or (not p24) p11 (not p20)) (or (not p17) (not p16) (not p7)) (or p24 (not p17) (not p14)) (or p16 p14 (not p6)) (or (not p2) p9 (not p0)) (or (not p10) p6 p12) (or (not p11) p23 (not p2)) (or (not p14) (not p7) p0) (or (not p12) (not p1) (not p14)) (or (not p17) p7 p8) (or p16 p9 p0) (or p12 p16 p17) (or (not p24) p18 (not p14)) (or (not p24) p13 (not p3)) (or p3 (not p1) p19) (or p20 (not p16) (not p21)) (or (not p13) (not p20) (not p14)) (or p9 p14 (not p21)) (or (not p17) (not p9) p10) (or p5 (not p16) p5) (or p7 p11 (not p5)) (or (not p6) p8 (not p6)) (or (not p24) (not p15) (not p3)) (or (not p7) (not p20) (not p22)) (or p4 p9 p3) (or (not p24) (not p24) (not p0)) (or p10 (not p4) p10) (or (not p4) (not p21) p16) (or p24 p6 (not p22)) (or (not p4) (not p3) p11) (or p0 (not p18) (not p8)) (or (not p9) p19 (not p7)) (or (not p6) p6 p8) (or (not p24) p22 (not p13)) (or p18 (not p2) (not p1)) (or p6 p14 (not p19)) (or (not p7) (not p23) p16) (or (not p7) (not p4) p18) (or p22 p24 p16) (or (not p1) (not p3) (not p17)) (or (not p5) p23 p7) (or p17 p13 (not p16)) (or (not p19) p6 p14) (or (not p17) (not p16) p2) (or (not p2) (not p15) (not p19)) (or p5 p18 (not p5)) (or (not p17) p22 (not p15)) (or (not p8) (not p11) (not p1)) (or p1 p7 p15) (or p24 (not p5) p15) (or (not p8) p4 p4) (or (not p8) (not p24) p21) (or p18 p20 (not p23)) (or p11 p20 (not p15)) (or (not p3) p17 p1) (or (not p1) (not p19) (not p13)) (or p9 p20 p10) (or p18 (not p1) p2) (or (not p14) (not p24) p1) (or p19 (not p24) (not p20)) (or (not p10) p12 (not p24)) (or p24 p20 (not p12)) (or (not p15) p13 (not p1)) (or p20 (not p15) (not p3)) (or p3 p6 (not p5)) (or (not p5) p8 p20) (or p24 p5 (not p1)) (or (not p19) (not p16) p6) (or (not p11) p19 (not p6)) (or p15 (not p17) (not p16)) (or p5 p4 (not p13)) (or p19 p17 (not p13)) (or (not p6) p17 (not p15)) (or p7 (not p14) (not p21)) (or (not p23) (not p19) p12) (or p20 p10 (not p17)) (or p4 (not p3) p16) (or p19 (not p19) (not p6)) (or (not p16) p0 p18) (or p18 p21 (not p14)) (or (not p22) p23 (not p16)) (or (not p13) p14 p23) (or (not p24) (not p17) (not p11)))
)
(check-sat)
(get-model)
